sat
(:SPACER-cex-depth                 2
 :SPACER-inductive-gen             5
 :SPACER-inductive-gen-weaken-fail 5
 :SPACER-max-depth                 2
 :SPACER-max-query-lvl             2
 :SPACER-num-active-lemmas         5
 :SPACER-num-is_invariant          3
 :SPACER-num-lemmas                7
 :SPACER-num-pobs                  5
 :SPACER-num-queries               6
 :SPACER-num-reach-queries         2
 :SPACER-num-reuse-reach-facts     1
 :added-eqs                        264
 :arith-assert-diseq               58
 :arith-assert-lower               304
 :arith-assert-upper               276
 :arith-bound-prop                 42
 :arith-conflicts                  6
 :arith-eq-adapter                 106
 :arith-fixed-eqs                  74
 :arith-num-rows                   36
 :arith-offset-eqs                 16
 :arith-pivots                     98
 :arith-row-summations             152
 :arith-tableau-max-columns        86
 :arith-tableau-max-rows           36
 :conflicts                        48
 :decisions                        216
 :del-clause                       112
 :final-checks                     22
 :iuc_solver.num_proxies           10
 :max-memory                       30.35
 :memory                           30.35
 :mk-bool-var                      488
 :mk-clause                        488
 :num-allocs                       4389010
 :num-checks                       52
 :pool_solver.checks               26
 :pool_solver.checks.sat           11
 :propagations                     1154
 :rlimit-count                     10526
 :time                             0.03
 :time.iuc_solver.get_iuc          0.00
 :time.pool_solver.smt.total       0.01
 :time.pool_solver.smt.total.sat   0.00
 :time.spacer.init_rules           0.00
 :time.spacer.solve                0.01
 :time.spacer.solve.propagate      0.00
 :time.spacer.solve.reach          0.01
 :time.spacer.solve.reach.children 0.00)
(:max-memory   30.35
 :memory       30.35
 :num-allocs   4389010
 :rlimit-count 10526
 :time         0.03
 :total-time   0.04)
